(declare-const a Real)
(declare-const b Real)
(declare-const c Real)
(assert (= (+ a b c) 3))
(assert (> a 0))
(assert (> b 0))
(assert (> c 0))
(assert (not (<= (+ 212992 (* 5 (pow (+ a b c) 8)) (* -384 (pow 2 (/ 1 2)) (pow (+ (* 196608 (pow a 2)) (* 196608 (pow b 2)) (* 196608 (pow c 2)) (* 98304 a b) (* 98304 a c) (* 98304 b c)) (pow 2 -1)))) 0)))
(check-sat)
(get-model)
(exit)